************************************************************************
file with basedata            : md376_.bas
initial value random generator: 714115960
************************************************************************
projects                      :  1
jobs (incl. supersource/sink ):  22
horizon                       :  153
RESOURCES
  - renewable                 :  2   R
  - nonrenewable              :  2   N
  - doubly constrained        :  0   D
************************************************************************
PROJECT INFORMATION:
pronr.  #jobs rel.date duedate tardcost  MPM-Time
    1     20      0       23        0       23
************************************************************************
PRECEDENCE RELATIONS:
jobnr.    #modes  #successors   successors
   1        1          3           2   3   4
   2        3          2          13  21
   3        3          2           6  14
   4        3          3           5   7   8
   5        3          3           6  13  15
   6        3          3           9  11  18
   7        3          3           9  10  15
   8        3          1          17
   9        3          1          19
  10        3          2          11  13
  11        3          3          12  19  20
  12        3          1          16
  13        3          1          17
  14        3          3          15  16  17
  15        3          2          18  21
  16        3          1          21
  17        3          2          18  19
  18        3          1          20
  19        3          1          22
  20        3          1          22
  21        3          1          22
  22        1          0        
************************************************************************
REQUESTS/DURATIONS:
jobnr. mode duration  R 1  R 2  N 1  N 2
------------------------------------------------------------------------
  1      1     0       0    0    0    0
  2      1     7       3    6    4    8
         2    10       1    6    3    7
         3    10       2    5    2    7
  3      1     2       1    2    6    7
         2     9       1    2    1    6
         3     9       1    2    2    5
  4      1     1       3    8    8    6
         2     7       2    5    8    5
         3     8       1    4    7    4
  5      1     5       8    9    8    7
         2     7       8    6    7    6
         3     8       7    4    6    4
  6      1     4       4    8    9    8
         2     7       3    5    8    6
         3     9       3    3    7    2
  7      1     1       7    4    8    1
         2     5       6    4    8    1
         3     6       4    3    7    1
  8      1     6       7    4    4    9
         2     8       7    4    2    5
         3     9       7    4    2    3
  9      1     3       3    4    6    8
         2     4       3    3    6    7
         3     5       2    3    6    6
 10      1     6       8    5    9    6
         2     9       6    3    9    6
         3    10       4    1    8    6
 11      1     1       7    8    2    7
         2     4       6    6    2    6
         3     5       6    6    1    6
 12      1     5      10    7    7    8
         2     8       9    6    7    6
         3    10       9    4    7    4
 13      1     2       9    7    8    5
         2    10       7    6    4    5
         3    10       6    6    5    5
 14      1     1       8   10    7    8
         2     3       8    7    3    8
         3     9       7    5    3    8
 15      1     4       6    4    5    8
         2     6       4    2    5    8
         3    10       1    2    3    6
 16      1     1       4    9   10    6
         2     1       5    6    6    6
         3     7       2    2    5    5
 17      1     3       7    7   10    6
         2     4       6    5    7    4
         3     7       6    4    7    2
 18      1     9       5   10    4    7
         2     9       6    3    8    3
         3     9       5    6    7    7
 19      1     1       4    6    6    9
         2     2       4    5    3    7
         3     2       3    5    4    8
 20      1     1       8    8    2    7
         2     4       8    7    2    7
         3     6       8    4    2    6
 21      1     1       7    7   10    3
         2     3       7    7    8    3
         3     4       5    6    6    2
 22      1     0       0    0    0    0
************************************************************************
RESOURCEAVAILABILITIES:
  R 1  R 2  N 1  N 2
   34   34  126  124
************************************************************************
MAXIMAL LAGS:
from  to  type  delay
    1   22   ES      0
    1    2   ES      0
    2   22   ES      0
    1    3   ES      0
    3   22   ES      0
    1    4   ES      0
    4   22   ES      0
    1    5   ES      0
    5   22   ES      0
    1    6   ES      0
    6   22   ES      0
    1    7   ES      0
    7   22   ES      0
    1    8   ES      0
    8   22   ES      0
    1    9   ES      0
    9   22   ES      0
    1   10   ES      0
   10   22   ES      0
    1   11   ES      0
   11   22   ES      0
    1   12   ES      0
   12   22   ES      0
    1   13   ES      0
   13   22   ES      0
    1   14   ES      0
   14   22   ES      0
    1   15   ES      0
   15   22   ES      0
    1   16   ES      0
   16   22   ES      0
    1   17   ES      0
   17   22   ES      0
    1   18   ES      0
   18   22   ES      0
    1   19   ES      0
   19   22   ES      0
    1   20   ES      0
   20   22   ES      0
    1   21   ES      0
   21   22   ES      0
    1   22   ES      0
    2   13   SS     -8
    2   13   SE     -8
    2   13   ES      7
    2   13   EE      4
    2   21   SS     -5
    2   21   SE    -12
    2   21   ES      4
    2   21   EE      9
    3    6   SS     12
    3    6   SE      3
    3    6   ES      5
    3    6   EE      4
    3   14   SS     -3
    3   14   SE     10
    3   14   ES      3
    3   14   EE      2
    4    5   SS      6
    4    5   SE      5
    4    5   ES      4
    4    5   EE      4
    4    7   SS     -8
    4    7   SE     -4
    4    7   ES     12
    4    7   EE     -6
    4    8   SS      2
    4    8   SE     -1
    4    8   ES      7
    4    8   EE      0
    5    6   SS      4
    5    6   SE     11
    6    5   SE      0
    5    6   ES      0
    5    6   EE      5
    5   13   SS      9
    5   13   SE      1
    5   13   ES     -7
    5   13   EE      2
    5   15   SS     -4
    5   15   SE      4
    5   15   ES     -7
    5   15   EE     10
    6    9   SS     -5
    6    9   SE    -12
    6    9   ES     12
    6    9   EE    -11
    6   11   SS      6
    6   11   SE     10
    6   11   ES      2
    6   11   EE    -10
    6   18   SS     -2
    6   18   SE     -4
    6   18   ES      3
    6   18   EE     -2
    7    9   SS      6
    7    9   SE     -1
    7    9   ES    -12
    7    9   EE     -9
    7   10   SS     -6
    7   10   SE     12
    7   10   ES     -6
    7   10   EE      0
    7   15   SS      2
    7   15   SE     -8
    7   15   ES     11
    7   15   EE      9
    8   17   SS    -10
    8   17   SE    -10
    8   17   ES     -2
    8   17   EE      0
    9   19   SS      2
    9   19   SE     12
    9   19   ES     11
    9   19   EE      4
   10   11   SS    -10
   10   11   SE     -4
   10   11   ES    -12
   10   11   EE      5
   10   13   SS     -7
   10   13   SE      5
   10   13   ES     -7
   10   13   EE     -3
   11   12   SS     12
   11   12   SE      0
   11   12   ES     -3
   11   12   EE      7
   11   19   SS      8
   11   19   SE     -9
   11   19   ES      8
   11   19   EE     -5
   11   20   SS      2
   11   20   SE    -10
   11   20   ES      1
   11   20   EE     -2
   12   16   SS    -11
   12   16   SE      6
   12   16   ES     -4
   12   16   EE      9
   13   17   SS      8
   13   17   SE     -7
   13   17   ES      9
   13   17   EE     -6
   14   15   SS      9
   14   15   SE     -9
   14   15   ES     -1
   14   15   EE      6
   14   16   SS      1
   14   16   SE      8
   14   16   ES     -5
   14   16   EE      3
   14   17   SS      5
   14   17   SE    -10
   14   17   ES     -5
   14   17   EE     -9
   15   18   SS      8
   15   18   SE      7
   15   18   ES    -10
   15   18   EE     -1
   15   21   SS     -9
   15   21   SE      4
   15   21   ES     11
   15   21   EE    -10
   16   21   SS     10
   16   21   SE     -5
   16   21   ES      0
   16   21   EE      6
   17   18   SS    -12
   17   18   SE    -12
   17   18   ES     -4
   17   18   EE      2
   17   19   SS      7
   17   19   SE    -11
   17   19   ES     -3
   17   19   EE      1
   18   20   SS     11
   18   20   SE     -3
   18   20   ES     -3
   18   20   EE      7
************************************************************************
